30
3
20461
752 461 374
false
0.25
10 29 43 18 30 1 37 21 50 31 27 32 33 29 27 19 11 20 25 35 31 49 39 35 14 17 5 19 42 35
19 14 49 32 49 39 10 42 41 36 28 11 49 34 27 6 25 6 32 19 28 44 18 35 32 23 38 45 38 12
50 9 47 46 29 6 24 31 31 32 46 21 50 14 19 7 25 26 30 18 12 35 46 25 47 21 19 39 11 50
70 6 90 67 2 52 33 50 49 28 70 11 87 52 97 27 22 38 16 28 85 11 74 67 44 18 41 68 43 98
0 0 67 0 0 0 0 81 0 0 0 0 0 63 0 83 18 0 0 27 0 97 0 0 0 0 0 0 0 0
0 88 0 0 0 0 0 0 0 0 0 62 0 0 0 51 0 0 0 0 0 0 0 0 0 0 0 0 0
0 0 0 0 0 0 0 75 59 0 0 0 0 0 0 0 34 52 0 0 0 0 0 24 0 0 0 83
0 0 52 0 0 95 0 76 0 0 0 6 0 0 0 74 0 0 0 0 0 0 0 52 0 0 0
0 0 0 99 0 0 0 0 0 0 58 0 2 0 0 0 76 0 55 0 68 0 0 0 0 68
0 0 0 0 88 0 23 0 0 59 0 0 31 18 0 0 0 0 0 0 91 0 0 61 32
0 0 0 51 0 0 76 0 0 0 0 0 0 30 0 0 0 0 0 0 0 65 0 0
0 79 5 0 20 0 0 0 0 0 83 39 0 0 0 24 0 0 6 0 5 0 2
0 81 0 60 0 0 0 0 65 0 95 0 0 0 18 0 26 0 0 0 0 0
0 90 0 0 0 0 0 4 44 10 0 0 79 0 0 0 0 0 0 0 85
0 0 0 15 0 0 0 15 89 0 0 0 0 0 0 0 0 0 0 96
0 0 2 100 0 0 0 0 0 0 0 0 0 0 94 0 8 0 0
0 0 0 0 89 0 0 0 47 0 0 0 0 0 0 0 0 0
0 60 0 0 0 0 0 0 0 0 55 27 79 0 0 0 0
0 83 0 0 0 0 0 92 0 0 0 0 0 25 0 97
0 0 0 0 0 0 0 0 0 0 35 0 0 0 79
0 0 0 0 0 0 0 27 0 98 0 0 0 0
0 0 0 82 97 0 99 0 0 0 0 0 0
0 0 0 0 0 74 0 1 0 0 0 0
0 0 0 55 0 0 0 0 0 0 59
0 0 0 0 0 94 0 0 0 11
0 0 0 0 0 0 0 0 0
0 44 61 55 0 0 73 0
0 0 0 0 0 82 0
0 0 81 0 0 0
0 20 0 45 0
0 12 0 0
0 0 0
0 0
0 0 0 0 0 0 0 0 0 0 6 0 0 0 0 0 0 0 0 0 0 0 0 0 0 0 0 0 0
0 79 0 84 0 0 0 0 0 1 0 0 0 0 0 0 0 0 62 0 47 0 0 9 0 0 14 5
0 6 0 0 0 60 0 0 68 23 0 0 83 0 0 35 52 0 5 0 0 0 0 0 0 0 0
0 0 0 0 0 84 0 97 0 0 0 0 0 0 2 0 0 0 0 0 0 0 0 0 87 0
0 0 36 0 0 51 0 0 0 79 0 0 52 0 0 0 77 0 0 28 0 94 63 54 0
0 0 0 0 0 0 3 61 0 0 0 0 16 0 0 0 29 0 19 0 0 0 0 47
0 0 0 0 0 58 0 0 0 0 0 90 0 0 0 0 0 0 40 63 0 0 0
0 0 0 78 0 0 0 0 0 0 0 0 0 0 0 0 0 0 0 1 0 0
0 0 0 77 0 0 0 43 80 0 6 0 0 0 0 46 90 0 0 0 42
0 39 0 87 75 0 0 90 0 97 0 36 0 0 0 0 4 0 0 0
0 0 0 0 0 0 0 74 0 60 38 0 0 0 0 0 0 0 0
0 1 0 0 0 0 0 0 24 55 0 68 0 0 0 17 91 16
0 0 96 0 0 0 0 0 0 0 0 0 0 0 0 0 0
0 10 0 0 0 0 29 92 0 0 0 0 0 0 80 0
0 0 13 0 0 0 0 0 0 0 0 0 0 0 0
0 0 15 0 0 0 0 70 0 0 0 0 0 72
0 22 5 0 0 22 0 0 0 0 0 4 0
0 0 0 0 98 0 0 58 0 50 0 0
0 0 46 0 0 0 78 0 6 0 0
0 0 0 0 0 0 0 0 0 6
0 0 33 0 32 0 0 0 0
0 0 61 0 0 17 0 0
0 0 0 0 43 0 0
0 0 7 0 0 70
0 0 0 5 0
0 0 0 8
0 0 0
0 26
0
0 0 0 0 0 0 0 0 22 0 0 0 84 0 0 0 0 31 0 0 0 14 0 0 0 56 0 0
0 0 26 0 0 0 0 0 0 0 0 22 0 0 0 0 0 0 0 0 0 0 0 47 45 0 0
0 0 0 0 0 0 39 19 0 0 85 0 0 0 0 13 36 0 0 54 0 12 0 0 0 0
0 0 87 0 23 43 0 0 0 0 13 0 0 0 0 0 54 0 0 59 0 49 0 0 0
0 77 0 0 12 0 0 7 0 0 0 0 0 0 0 0 0 0 74 0 3 0 0 0
0 0 0 0 0 0 0 74 0 0 0 0 95 0 0 0 84 0 0 73 0 0 0
0 72 0 45 0 0 0 0 0 30 0 0 0 37 0 0 0 0 0 25 0 54
0 0 58 0 10 0 0 0 0 71 0 0 65 0 0 0 0 0 24 46 0
0 0 0 0 43 0 0 78 0 0 73 96 0 0 0 0 0 0 0 0
0 0 0 74 0 0 9 0 0 0 0 0 0 0 0 55 18 6 0
0 0 45 0 0 18 58 0 0 0 0 25 58 0 58 51 89 8
0 0 0 35 0 87 0 0 0 0 0 0 0 0 0 3 0
0 0 0 29 0 0 0 28 0 0 0 92 80 0 0 0
0 0 0 0 0 0 0 0 0 0 0 83 0 9 0
0 0 59 0 0 97 96 0 0 0 0 0 0 0
0 0 0 0 0 0 0 95 0 0 0 0 69
0 94 0 0 42 0 0 0 0 39 44 0
0 0 0 0 0 0 0 0 0 0 0
0 0 0 0 0 0 57 0 79 79
0 0 0 0 0 6 19 0 14
0 0 0 0 0 0 0 0
0 0 0 55 0 54 0
0 0 0 0 80 74
0 0 0 0 0
0 0 0 49
0 0 0
0 0
0
0 0 0 0 0 0 0 0 0 49 0 0 0 0 0 0 0 0 0 0 0 0 0 0 0 28 0
0 6 8 0 0 0 0 0 0 0 21 0 0 0 0 66 52 0 0 0 0 0 0 0 0 0
0 85 0 0 0 0 0 0 0 57 0 96 71 26 0 0 0 0 0 0 8 0 0 0 0
0 0 69 0 0 0 0 0 0 9 0 0 0 0 0 0 0 0 0 0 0 0 5 9
0 0 0 0 28 0 0 0 0 9 93 98 0 58 0 0 0 6 36 0 0 0 0
0 0 0 0 0 1 0 0 0 95 0 7 0 0 95 0 27 0 0 69 0 0
0 97 75 0 0 31 0 0 90 0 74 0 36 0 0 59 0 55 0 0 0
0 0 42 0 0 19 0 47 0 0 3 0 0 27 0 0 0 0 40 0
0 0 0 0 80 0 0 57 59 0 0 0 0 93 42 48 0 0 0
0 44 0 0 0 0 0 0 0 0 0 0 0 0 26 0 57 0
0 0 0 0 0 2 52 0 0 0 0 0 0 12 0 0 0
0 0 85 0 0 0 0 46 0 1 0 39 0 16 5 0
0 0 22 81 46 0 0 42 0 0 0 0 0 0 0
0 0 0 0 0 9 95 0 85 60 0 0 2 38
0 0 0 14 0 0 0 0 58 0 0 0 0
0 88 0 0 0 0 0 0 0 0 0 0
0 0 0 0 0 0 0 0 0 15 0
0 0 0 0 0 0 0 0 0 0
0 0 28 31 0 0 0 0 0
0 0 69 0 0 0 71 0
0 0 58 16 0 0 0
0 0 0 92 0 58
0 26 0 0 0
0 0 32 0
0 0 0
0 0
0
0 60 0 0 0 99 0 0 0 0 0 0 0 0 0 0 9 0 87 0 74 0 0 0 63 0
0 0 13 0 0 0 0 0 89 0 0 83 0 99 0 0 0 0 0 58 0 0 0 0 92
0 0 0 2 0 0 0 0 0 20 0 0 18 17 17 15 0 0 0 0 0 0 0 0
0 0 0 0 0 31 0 0 0 0 0 0 60 0 0 0 0 18 0 43 0 0 92
0 0 0 0 0 0 57 0 0 80 0 0 0 82 0 0 0 83 42 6 0 0
0 0 0 0 47 93 89 41 0 0 0 0 57 0 0 37 0 0 0 0 0
0 54 0 0 87 0 0 0 0 0 0 91 0 0 0 21 55 0 0 0
0 0 96 55 87 0 76 0 0 0 0 28 0 0 0 0 0 0 0
0 91 0 0 0 0 0 0 0 0 74 0 83 5 0 15 0 0
0 0 2 0 0 2 0 0 0 0 0 0 0 93 37 0 34
0 0 21 0 0 0 0 0 0 0 8 0 0 3 0 0
0 57 0 0 0 0 0 0 0 0 88 0 0 33 0
0 0 43 0 94 97 0 0 0 0 0 0 26 18
0 0 0 0 0 0 57 0 0 0 0 61 0
0 96 0 0 0 0 66 0 41 0 0 44
0 0 0 0 0 0 64 0 0 0 82
0 0 70 0 73 0 0 0 0 0
0 62 73 74 0 99 0 0 0
0 0 0 0 0 0 33 0
0 0 0 0 3 18 83
0 0 0 0 0 74
0 0 20 0 0
0 0 65 82
0 0 0
0 24
0
0 0 0 0 0 29 0 0 0 0 2 0 0 0 0 0 0 0 0 0 21 75 48 0 0
0 81 0 38 0 0 0 0 0 0 0 0 46 0 0 32 9 0 0 0 3 0 0 0
0 0 0 9 88 41 0 0 39 0 84 0 0 0 64 0 0 0 23 0 0 0 0
0 0 0 61 0 0 0 0 0 0 51 0 0 0 0 0 0 0 0 0 0 0
0 63 0 17 43 0 0 0 94 0 38 0 0 0 0 0 75 0 0 79 0
0 0 0 54 0 0 0 84 0 0 0 0 0 0 23 0 50 0 0 0
0 0 0 85 0 0 0 0 0 0 33 90 0 0 0 0 87 3 0
0 2 0 27 0 0 0 0 0 10 0 69 0 14 0 0 1 47
0 0 0 0 0 0 0 0 0 0 0 0 0 0 0 0 0
0 0 61 0 0 0 5 9 0 0 0 0 0 0 0 0
0 0 0 0 0 0 0 20 73 0 45 0 0 0 0
0 0 0 27 0 0 0 66 0 0 0 0 95 0
0 0 0 15 0 0 0 0 99 0 0 0 0
0 27 0 0 98 0 0 0 0 0 0 80
0 0 0 0 0 53 0 80 85 0 0
0 12 77 31 0 0 0 0 0 0
0 6 0 0 0 9 0 0 0
0 0 0 0 0 0 0 0
0 82 0 0 87 0 0
0 47 0 0 0 0
0 0 0 0 0
0 0 0 0
0 56 0
0 0
0
0 0 0 43 0 0 0 23 0 0 0 0 29 0 0 0 82 0 0 24 0 0 0 0
0 0 0 0 0 0 0 0 0 0 0 0 0 0 3 59 14 0 0 0 91 0 0
0 0 0 0 39 0 0 0 0 0 0 0 30 0 0 0 0 0 0 0 0 44
0 20 0 0 0 0 0 27 23 23 0 0 19 8 0 0 68 0 0 0 70
0 0 0 92 27 0 0 0 0 98 0 43 0 0 0 0 0 0 0 0
0 0 0 0 19 0 0 52 0 0 0 43 0 0 0 0 0 0 0
0 0 0 78 7 36 0 46 71 0 0 0 80 0 0 0 0 0
0 27 57 0 0 0 0 0 34 0 0 37 0 0 0 96 8
0 57 0 47 0 0 0 13 0 0 0 0 0 0 0 0
0 0 0 64 0 0 48 0 0 0 0 46 0 0 0
0 0 0 0 0 0 0 0 0 97 0 44 8 0
0 0 40 0 43 0 0 16 48 44 0 0 0
0 0 0 0 64 14 58 0 0 0 52 65
0 0 0 0 0 0 0 57 50 49 0
0 0 0 14 0 42 0 0 0 57
0 0 0 0 0 0 0 89 90
0 0 0 0 0 0 0 0
0 0 0 0 38 0 0
0 15 100 65 0 0
0 0 0 0 0
0 0 0 76
0 65 0
0 0
0
0 0 0 0 85 64 0 0 0 0 12 33 0 0 0 0 5 0 0 0 0 0 0
0 14 0 50 0 76 0 0 0 49 0 0 52 0 0 0 0 0 0 0 0 0
0 43 0 25 0 45 0 38 0 0 0 57 83 0 60 0 0 0 64 0 88
0 0 0 0 26 32 0 0 12 0 0 84 0 0 0 0 36 0 0 0
0 0 0 0 0 0 0 30 0 56 0 0 0 0 19 0 0 74 0
0 0 0 96 59 0 0 0 0 0 0 21 0 0 0 0 0 0
0 0 0 0 0 75 83 0 0 86 0 0 0 0 0 0 6
0 0 0 0 5 0 82 0 0 0 16 31 0 0 71 0
0 75 0 0 0 47 0 38 83 54 53 0 0 71 0
0 0 0 13 81 39 24 0 0 67 0 99 0 99
0 0 2 0 81 77 64 0 0 0 0 0 35
0 0 0 0 0 0 14 0 0 0 0 0
0 0 0 0 2 0 0 0 56 0 63
0 0 0 0 0 29 0 0 84 0
0 0 0 0 0 0 0 29 72
0 0 84 0 0 0 0 0
0 0 0 54 0 28 0
0 0 0 0 51 0
0 5 2 0 0
0 0 0 0
0 0 58
0 0
0
0 0 0 75 0 96 0 0 0 0 43 7 0 0 0 0 0 0 0 0 0 0
0 10 0 58 0 0 52 0 0 0 0 0 0 99 0 0 0 0 0 0 0
0 0 0 36 0 0 49 0 54 0 0 0 0 0 98 0 0 78 57 0
0 0 0 0 51 0 0 0 0 0 61 0 2 8 0 0 0 51 0
0 97 0 70 0 0 0 0 28 0 26 0 0 0 0 0 0 0
0 0 0 58 14 12 0 0 0 0 54 0 54 0 83 0 65
0 0 0 0 0 10 0 0 0 0 32 0 0 0 0 0
0 0 0 0 0 0 24 0 0 0 0 0 0 0 81
0 27 0 84 55 44 0 0 0 0 0 0 0 0
0 0 0 18 0 0 0 15 0 0 0 0 0
0 0 0 0 0 0 88 0 23 0 0 0
0 0 0 91 0 0 0 63 0 0 0
0 11 0 0 0 7 0 0 0 40
0 0 0 0 92 0 0 0 0
0 0 39 0 0 0 0 0
0 0 0 0 71 0 0
0 0 63 97 41 0
0 67 0 0 0
0 0 0 23
0 0 21
0 0
0
0 0 95 0 0 0 0 2 0 0 17 0 12 0 0 0 0 7 0 0 0
0 0 10 0 0 55 0 0 0 45 58 0 86 0 0 0 1 0 0 0
0 0 0 50 16 0 0 0 0 0 0 0 0 46 0 0 30 0 0
0 97 0 0 75 0 77 0 0 0 0 0 92 0 0 66 0 0
0 70 0 0 0 0 0 0 65 0 0 0 0 0 0 0 59
0 0 69 0 0 0 0 74 0 25 0 34 62 0 0 0
0 0 0 0 0 0 0 0 84 0 0 3 0 0 18
0 0 0 0 0 0 0 0 0 0 0 0 0 24
0 0 0 0 0 0 0 0 0 42 0 0 0
0 76 0 0 0 0 0 0 61 0 0 0
0 5 0 0 52 44 82 0 0 96 0
0 0 0 0 0 0 93 0 0 0
0 0 0 90 0 0 0 0 0
0 37 0 0 0 0 0 0
0 0 87 0 0 0 0
0 20 0 0 51 74
0 0 0 91 0
0 0 0 0
0 0 47
0 0
0
0 0 10 0 0 0 66 0 0 0 76 34 0 6 62 0 0 71 0 0
0 0 84 0 82 0 0 0 0 0 30 0 0 75 58 0 0 0 12
0 0 0 0 55 0 0 0 0 45 0 0 0 0 5 0 69 0
0 0 0 0 0 0 0 0 0 0 0 0 0 0 0 0 51
0 0 0 0 0 0 0 0 0 0 0 0 0 31 0 79
0 0 0 0 0 0 72 0 0 0 0 0 11 92 0
0 0 0 0 0 0 0 0 0 0 0 0 0 0
0 0 0 0 43 93 0 0 48 36 0 0 0
0 0 0 0 0 0 0 0 51 27 98 0
0 0 0 0 98 0 0 90 0 0 45
0 38 0 28 0 0 0 100 0 0
0 0 0 29 41 0 99 0 0
0 0 0 0 0 0 0 0
0 0 0 0 0 92 4
0 0 0 73 0 0
0 31 85 0 0
0 0 0 0
0 0 61
0 0
0
0 0 44 1 0 0 0 18 0 0 0 44 0 0 0 60 0 0 0
0 0 52 0 73 0 0 0 0 39 0 0 0 0 0 0 83 72
0 0 0 0 0 10 9 28 5 0 0 0 73 0 0 0 69
0 8 50 14 0 0 61 0 0 0 0 0 0 9 84 0
0 0 0 98 0 42 0 0 0 62 0 0 0 32 25
0 0 0 0 0 0 0 97 0 0 52 0 0 37
0 0 0 0 0 0 0 0 90 0 85 42 0
0 0 69 0 0 0 0 0 0 0 0 66
0 0 0 96 20 0 67 0 4 0 0
0 0 0 70 15 9 0 0 47 0
0 0 0 0 0 0 0 0 0
0 0 0 42 98 0 56 0
0 0 34 0 0 76 0
0 0 0 0 45 0
0 0 0 0 0
0 0 0 0
0 67 0
0 0
0
0 0 0 0 38 0 0 7 0 2 91 0 72 0 17 53 0 73
0 0 0 0 0 0 0 0 34 0 0 0 0 0 79 0 0
0 0 0 0 0 0 0 35 0 0 0 93 75 0 0 0
0 0 49 0 0 0 47 0 82 0 0 0 0 0 0
0 0 88 79 0 0 16 0 17 60 0 18 0 0
0 0 0 0 0 84 0 5 0 0 0 0 0
0 0 0 0 0 0 0 0 0 0 0 0
0 0 95 0 11 0 0 0 0 0 3
0 77 0 0 0 82 0 0 0 87
0 0 0 0 0 0 55 25 0
0 0 0 2 0 0 25 53
0 7 0 0 0 97 0
0 0 0 0 0 0
0 33 0 0 0
0 54 0 31
0 3 0
0 0
0
0 0 0 0 100 0 48 0 0 0 22 28 0 0 0 0 0
0 0 27 0 0 75 0 0 0 0 25 0 88 0 0 34
0 0 8 29 0 0 0 0 0 0 11 0 0 0 0
0 0 0 62 0 0 2 0 51 0 70 0 0 0
0 0 57 0 0 0 74 0 0 0 0 27 60
0 94 0 37 0 19 0 0 64 0 0 0
0 0 0 48 0 0 0 51 87 46 0
0 0 0 0 0 0 0 0 28 0
0 0 0 0 0 0 0 0 0
0 0 0 88 0 0 39 0
0 0 0 0 0 0 0
0 0 0 19 0 0
0 0 12 0 0
0 0 0 0
0 0 0
0 0
0
0 100 0 0 0 65 71 78 75 0 0 0 56 20 0 0
0 0 0 0 68 13 25 0 91 0 0 19 100 0 35
0 85 64 0 42 0 0 0 0 41 0 54 0 67
0 0 0 0 0 66 41 0 0 0 0 0 0
0 0 0 0 0 0 0 0 0 99 79 0
0 0 0 0 0 0 19 35 24 0 0
0 0 0 0 0 0 0 10 0 0
0 0 34 0 0 0 0 84 0
0 1 0 61 0 0 0 67
0 0 3 0 0 0 56
0 0 4 0 0 0
0 0 8 0 0
0 81 0 82
0 0 0
0 0
0
0 43 0 0 0 0 0 0 77 0 0 0 19 0 38
0 0 0 37 0 96 0 0 0 0 0 0 0 0
0 0 0 25 0 0 0 98 0 52 0 0 0
0 0 0 0 0 0 0 0 0 61 0 0
0 0 0 0 0 0 69 0 0 52 12
0 0 100 0 59 0 0 88 0 0
0 0 0 0 0 0 0 0 55
0 0 0 0 0 0 0 0
0 0 42 0 0 0 0
0 66 0 86 0 0
0 0 55 0 0
0 0 0 0
0 0 0
0 0
0
0 62 0 0 0 0 0 0 0 5 0 0 63 0
0 0 0 0 0 0 0 0 0 6 0 0 0
0 53 0 0 0 94 97 0 0 71 0 0
0 0 0 0 0 0 0 0 23 0 0
0 38 0 0 0 0 0 0 0 0
0 0 100 0 0 0 100 0 0
0 0 0 0 0 0 0 0
0 0 27 50 0 0 0
0 0 0 0 14 0
0 30 0 0 0
0 0 0 0
0 0 0
0 0
0
0 0 0 0 98 0 11 0 94 0 0 0 0
0 0 2 0 0 16 74 0 0 64 0 0
0 53 0 0 0 0 0 0 0 0 59
0 0 0 0 0 63 66 0 0 0
0 0 0 0 0 0 0 0 0
0 0 0 0 0 0 28 0
0 0 0 0 0 0 0
0 0 0 87 0 90
0 0 0 0 0
0 19 75 0
0 59 0
0 0
0
0 0 0 0 0 40 0 0 52 0 0 0
0 0 0 0 0 0 0 0 0 0 0
0 0 71 0 62 0 0 0 0 0
0 0 0 0 0 68 100 0 100
0 60 0 0 0 0 0 0
0 0 0 0 0 0 0
0 0 0 0 0 100
0 0 0 0 0
0 0 0 95
0 0 0
0 15
0
0 0 0 0 0 58 0 0 0 83 0
0 96 0 4 0 0 0 0 80 0
0 0 0 0 50 0 0 0 32
0 0 31 0 0 0 0 0
0 0 86 0 0 0 0
0 0 0 0 0 0
0 0 34 0 0
0 0 69 0
0 0 0
0 0
0
0 0 81 0 0 0 55 0 0 11
0 0 0 0 0 0 0 42 0
0 0 0 0 0 0 0 0
0 87 0 0 18 88 0
0 11 0 0 0 34
0 47 0 0 53
0 0 73 51
0 0 0
0 76
0
0 0 0 0 59 0 65 0 0
0 79 0 0 0 0 0 0
0 90 0 0 92 26 0
0 0 0 0 0 0
0 0 0 0 90
0 0 0 97
0 0 0
0 67
0
0 0 0 0 0 0 0 0
0 0 65 28 0 53 87
0 0 0 0 0 64
0 0 29 0 0
0 0 0 0
0 0 0
0 79
0
0 0 8 0 0 0 0
0 0 0 0 0 0
0 0 26 51 0
0 0 0 0
0 0 11
0 0
0
0 0 35 0 25 43
0 0 13 0 0
0 44 0 51
0 36 0
0 63
0
0 56 41 0 53
0 9 0 65
0 0 0
0 14
0
0 0 0 60
0 0 0
0 0
0
0 0 0
0 0
0
0 0
0
0
4884 4691 4962 5861 4784 5862 4963 5423 4942 6562 6214 5763 5653 5708 5892 5078 5910 5294 5748 5670 5059 6031 4533 5230 5894 5416 5311 5155 5608 6323
281.0442105263158 339.35075716110197 107.41170768158823 212.06013486312398 140.6882789897568 2329.769230769231 279.0756006006006 187.4308755760369 126.2653134015211 199.67256571087216 195.7212253661529 326.1438041125541 133.24345908060192 257.47474162078623 248.84990253411306 613.0083542188805 336.6909090909091 450.2162393162393 200.38166666666666 258.4736842105263 255.1518177163338 144.15470006184293 155.5358602749907 169.35238095238094 243.53058510638297 270.6570860228149 493.82982456140354 172.6836107362423 263.64031290347083 278.01126984126984
